c CNF file corresponding to a (partial) station packing problem.
p cnf 7217 229
7201 7202 7203 7204 7205 7206 7207 7208 7209 7210 7211 7212 7213 7214 7215 7216 7217 0
-7201 -7202 0
-7201 -7203 0
-7201 -7204 0
-7201 -7205 0
-7201 -7206 0
-7201 -7207 0
-7201 -7208 0
-7201 -7209 0
-7201 -7210 0
-7201 -7211 0
-7201 -7212 0
-7201 -7213 0
-7201 -7214 0
-7201 -7215 0
-7201 -7216 0
-7201 -7217 0
-7202 -7203 0
-7202 -7204 0
-7202 -7205 0
-7202 -7206 0
-7202 -7207 0
-7202 -7208 0
-7202 -7209 0
-7202 -7210 0
-7202 -7211 0
-7202 -7212 0
-7202 -7213 0
-7202 -7214 0
-7202 -7215 0
-7202 -7216 0
-7202 -7217 0
-7203 -7204 0
-7203 -7205 0
-7203 -7206 0
-7203 -7207 0
-7203 -7208 0
-7203 -7209 0
-7203 -7210 0
-7203 -7211 0
-7203 -7212 0
-7203 -7213 0
-7203 -7214 0
-7203 -7215 0
-7203 -7216 0
-7203 -7217 0
-7204 -7205 0
-7204 -7206 0
-7204 -7207 0
-7204 -7208 0
-7204 -7209 0
-7204 -7210 0
-7204 -7211 0
-7204 -7212 0
-7204 -7213 0
-7204 -7214 0
-7204 -7215 0
-7204 -7216 0
-7204 -7217 0
-7205 -7206 0
-7205 -7207 0
-7205 -7208 0
-7205 -7209 0
-7205 -7210 0
-7205 -7211 0
-7205 -7212 0
-7205 -7213 0
-7205 -7214 0
-7205 -7215 0
-7205 -7216 0
-7205 -7217 0
-7206 -7207 0
-7206 -7208 0
-7206 -7209 0
-7206 -7210 0
-7206 -7211 0
-7206 -7212 0
-7206 -7213 0
-7206 -7214 0
-7206 -7215 0
-7206 -7216 0
-7206 -7217 0
-7207 -7208 0
-7207 -7209 0
-7207 -7210 0
-7207 -7211 0
-7207 -7212 0
-7207 -7213 0
-7207 -7214 0
-7207 -7215 0
-7207 -7216 0
-7207 -7217 0
-7208 -7209 0
-7208 -7210 0
-7208 -7211 0
-7208 -7212 0
-7208 -7213 0
-7208 -7214 0
-7208 -7215 0
-7208 -7216 0
-7208 -7217 0
-7209 -7210 0
-7209 -7211 0
-7209 -7212 0
-7209 -7213 0
-7209 -7214 0
-7209 -7215 0
-7209 -7216 0
-7209 -7217 0
-7210 -7211 0
-7210 -7212 0
-7210 -7213 0
-7210 -7214 0
-7210 -7215 0
-7210 -7216 0
-7210 -7217 0
-7211 -7212 0
-7211 -7213 0
-7211 -7214 0
-7211 -7215 0
-7211 -7216 0
-7211 -7217 0
-7212 -7213 0
-7212 -7214 0
-7212 -7215 0
-7212 -7216 0
-7212 -7217 0
-7213 -7214 0
-7213 -7215 0
-7213 -7216 0
-7213 -7217 0
-7214 -7215 0
-7214 -7216 0
-7214 -7217 0
-7215 -7216 0
-7215 -7217 0
-7216 -7217 0
1 2 3 4 5 6 7 8 9 10 11 12 13 14 0
-1 -2 0
-1 -3 0
-1 -4 0
-1 -5 0
-1 -6 0
-1 -7 0
-1 -8 0
-1 -9 0
-1 -10 0
-1 -11 0
-1 -12 0
-1 -13 0
-1 -14 0
-2 -3 0
-2 -4 0
-2 -5 0
-2 -6 0
-2 -7 0
-2 -8 0
-2 -9 0
-2 -10 0
-2 -11 0
-2 -12 0
-2 -13 0
-2 -14 0
-3 -4 0
-3 -5 0
-3 -6 0
-3 -7 0
-3 -8 0
-3 -9 0
-3 -10 0
-3 -11 0
-3 -12 0
-3 -13 0
-3 -14 0
-4 -5 0
-4 -6 0
-4 -7 0
-4 -8 0
-4 -9 0
-4 -10 0
-4 -11 0
-4 -12 0
-4 -13 0
-4 -14 0
-5 -6 0
-5 -7 0
-5 -8 0
-5 -9 0
-5 -10 0
-5 -11 0
-5 -12 0
-5 -13 0
-5 -14 0
-6 -7 0
-6 -8 0
-6 -9 0
-6 -10 0
-6 -11 0
-6 -12 0
-6 -13 0
-6 -14 0
-7 -8 0
-7 -9 0
-7 -10 0
-7 -11 0
-7 -12 0
-7 -13 0
-7 -14 0
-8 -9 0
-8 -10 0
-8 -11 0
-8 -12 0
-8 -13 0
-8 -14 0
-9 -10 0
-9 -11 0
-9 -12 0
-9 -13 0
-9 -14 0
-10 -11 0
-10 -12 0
-10 -13 0
-10 -14 0
-11 -12 0
-11 -13 0
-11 -14 0
-12 -13 0
-12 -14 0
-13 -14 0
